problems/csplib-prob065/opd-models/noch/O2/minion/model_1-medium_09_70_35-solution000001.solution
language Essence 1.3

letting lambda be 29
letting opd be
        {{29, 31, 32, 33, 34, 35, 36, 37, 39, 40, 41, 42, 43, 45, 46, 47, 48, 49, 51, 52, 53, 54, 55, 57, 58, 59, 60,
          61, 63, 64, 65, 66, 67, 69, 70},
         {29, 31, 32, 33, 34, 35, 36, 38, 39, 40, 41, 42, 44, 45, 46, 47, 48, 50, 51, 52, 53, 54, 56, 57, 58, 59, 60,
          62, 63, 64, 65, 66, 68, 69, 70},
         {29, 31, 32, 33, 34, 35, 37, 38, 39, 40, 41, 43, 44, 45, 46, 47, 49, 50, 51, 52, 53, 55, 56, 57, 58, 59, 61,
          62, 63, 64, 65, 67, 68, 69, 70},
         {30, 31, 32, 33, 34, 35, 36, 37, 38, 39, 40, 41, 42, 43, 44, 45, 46, 47, 48, 49, 50, 51, 52, 53, 54, 55, 56,
          57, 58, 59, 66, 67, 68, 69, 70},
         {30, 31, 32, 33, 34, 35, 36, 37, 38, 39, 40, 41, 42, 43, 44, 45, 46, 47, 48, 49, 50, 51, 52, 53, 60, 61, 62,
          63, 64, 65, 66, 67, 68, 69, 70},
         {30, 31, 32, 33, 34, 35, 36, 37, 38, 39, 40, 41, 42, 43, 44, 45, 46, 47, 54, 55, 56, 57, 58, 59, 60, 61, 62,
          63, 64, 65, 66, 67, 68, 69, 70},
         {30, 31, 32, 33, 34, 35, 36, 37, 38, 39, 40, 41, 48, 49, 50, 51, 52, 53, 54, 55, 56, 57, 58, 59, 60, 61, 62,
          63, 64, 65, 66, 67, 68, 69, 70},
         {30, 31, 32, 33, 34, 35, 42, 43, 44, 45, 46, 47, 48, 49, 50, 51, 52, 53, 54, 55, 56, 57, 58, 59, 60, 61, 62,
          63, 64, 65, 66, 67, 68, 69, 70},
         {36, 37, 38, 39, 40, 41, 42, 43, 44, 45, 46, 47, 48, 49, 50, 51, 52, 53, 54, 55, 56, 57, 58, 59, 60, 61, 62,
          63, 64, 65, 66, 67, 68, 69, 70}}
$ Visualisation for opd
$ 29 31 32 33 34 35 36 37 39 40 41 42 43 45 46 47 48 49 51 52 53 54 55 57 58 59 60 61 63 64 65 66 67 69 70
$ 29 31 32 33 34 35 36 38 39 40 41 42 44 45 46 47 48 50 51 52 53 54 56 57 58 59 60 62 63 64 65 66 68 69 70
$ 29 31 32 33 34 35 37 38 39 40 41 43 44 45 46 47 49 50 51 52 53 55 56 57 58 59 61 62 63 64 65 67 68 69 70
$ 30 31 32 33 34 35 36 37 38 39 40 41 42 43 44 45 46 47 48 49 50 51 52 53 54 55 56 57 58 59 66 67 68 69 70
$ 30 31 32 33 34 35 36 37 38 39 40 41 42 43 44 45 46 47 48 49 50 51 52 53 60 61 62 63 64 65 66 67 68 69 70
$ 30 31 32 33 34 35 36 37 38 39 40 41 42 43 44 45 46 47 54 55 56 57 58 59 60 61 62 63 64 65 66 67 68 69 70
$ 30 31 32 33 34 35 36 37 38 39 40 41 48 49 50 51 52 53 54 55 56 57 58 59 60 61 62 63 64 65 66 67 68 69 70
$ 30 31 32 33 34 35 42 43 44 45 46 47 48 49 50 51 52 53 54 55 56 57 58 59 60 61 62 63 64 65 66 67 68 69 70
$ 36 37 38 39 40 41 42 43 44 45 46 47 48 49 50 51 52 53 54 55 56 57 58 59 60 61 62 63 64 65 66 67 68 69 70

